
Gurobi 8.0.1 (win64, Python) logging started 06/22/20 15:51:01

Academic license - for non-commercial use only
Read LP format model from file C:\Users\stevo\AppData\Local\Temp\tmpm_x26km0.pyomo.lp
Reading time = 32.72 seconds
x2140530: 2528094 rows, 2140530 columns, 6641506 nonzeros
Optimize a model with 2528094 rows, 2140530 columns and 6641506 nonzeros
Coefficient statistics:
  Matrix range     [1e-04, 6e+02]
  Objective range  [1e+00, 1e+06]
  Bounds range     [0e+00, 0e+00]
  RHS range        [2e-03, 1e+11]
Warning: Model contains large rhs
         Consider reformulating model or setting NumericFocus parameter
         to avoid numerical issues.

Concurrent LP optimizer: dual simplex and barrier
Showing barrier log only...

Presolve removed 0 rows and 0 columns (presolve time = 7s) ...
Presolve removed 1849890 rows and 828142 columns (presolve time = 11s) ...
Presolve removed 2228674 rows and 1242158 columns (presolve time = 18s) ...
Presolve removed 2228674 rows and 1339046 columns (presolve time = 20s) ...
Presolve removed 2281516 rows and 1339046 columns
Presolve time: 23.22s
Presolved: 246578 rows, 854326 columns, 1312286 nonzeros

Ordering time: 0.37s

Barrier statistics:
 AA' NZ     : 4.756e+05
 Factor NZ  : 6.094e+06 (roughly 500 MBytes of memory)
 Factor Ops : 3.540e+08 (less than 1 second per iteration)
 Threads    : 1

                  Objective                Residual
Iter       Primal          Dual         Primal    Dual     Compl     Time
   0   9.34575796e+21 -1.01150457e+21  2.15e+10 0.00e+00  2.06e+16    26s
   1   1.09311615e+21 -3.44197308e+20  2.08e+09 1.49e-08  2.20e+15    28s
   2   3.35037219e+20 -7.25957491e+19  5.84e+08 3.76e-07  6.11e+14    29s
   3   5.63409008e+19 -1.06736794e+19  8.47e+07 2.01e-07  9.27e+13    30s
   4   5.89790542e+18 -1.67112267e+18  8.36e+06 3.74e-07  9.73e+12    32s
   5   3.41518002e+17 -4.52954852e+17  4.68e+05 4.61e-08  7.74e+11    33s
   6   6.61278224e+16 -2.73066021e+17  8.32e+04 2.35e-08  2.66e+11    34s
   7   7.32342858e+15 -8.48003973e+16  6.15e+03 1.49e-08  6.44e+10    35s
   8   9.22611141e+14 -4.96295384e+15  2.69e+02 1.49e-08  4.04e+09    37s
   9   2.36656908e+12 -6.21575831e+12  2.22e-01 4.66e-08  5.87e+06    38s
  10   2.28281691e+10 -1.43443691e+11  2.02e-01 1.49e-08  1.14e+05    39s
  11   2.04428453e+10 -5.49069443e+10  3.95e-02 5.13e-06  5.18e+04    40s
  12   1.96970406e+10  2.91891888e+08  8.04e-03 1.30e-05  1.37e+04    42s
  13   1.90927483e+10  1.58005401e+10  2.42e-03 2.55e-05  2.71e+03    43s
  14   1.87077387e+10  1.79160921e+10  6.44e-04 3.59e-05  1.03e+03    44s
  15   1.86157765e+10  1.86338156e+10  4.16e-04 4.03e-05  4.10e+02    45s
  16   1.85224396e+10  1.88699745e+10  1.75e-04 3.85e-05  1.38e+02    47s
  17   1.84835215e+10  1.88933526e+10  8.98e-05 3.35e-05  6.03e+01    48s
  18   1.84577461e+10  1.89042537e+10  2.57e-05 2.67e-05  1.36e+01    49s
  19   1.84522444e+10  1.89024528e+10  1.37e-05 2.35e-05  5.29e+00    50s
  20   1.84510852e+10  1.88986862e+10  1.12e-05 2.31e-05  3.83e+00    51s
  21   1.84500253e+10  1.88974899e+10  9.06e-06 2.29e-05  3.14e+00    52s
  22   1.84496233e+10  1.88970615e+10  8.29e-06 2.28e-05  2.92e+00    53s
  23   1.84493105e+10  1.88950095e+10  7.69e-06 2.23e-05  2.53e+00    54s
  24   1.84488286e+10  1.88940496e+10  6.79e-06 2.20e-05  2.22e+00    55s
  25   1.84483564e+10  1.88931056e+10  6.08e-06 2.17e-05  1.93e+00    56s
  26   1.84479839e+10  1.88925092e+10  5.48e-06 2.15e-05  1.73e+00    58s
  27   1.84476654e+10  1.88921057e+10  5.01e-06 2.14e-05  1.58e+00    59s
  28   1.84475386e+10  1.88916584e+10  4.83e-06 2.12e-05  1.50e+00    59s
  29   1.84474203e+10  1.88913346e+10  4.65e-06 2.10e-05  1.43e+00    60s
  30   1.84472166e+10  1.88910214e+10  4.39e-06 2.09e-05  1.33e+00    61s
  31   1.84470942e+10  1.88906858e+10  4.39e-06 2.07e-05  1.27e+00    62s
  32   1.84469550e+10  1.88903971e+10  4.39e-06 2.06e-05  1.20e+00    63s
  33   1.84466967e+10  1.88900723e+10  4.39e-06 2.04e-05  1.10e+00    64s
  34   1.84465829e+10  1.88897446e+10  4.39e-06 2.02e-05  1.04e+00    65s
  35   1.84464798e+10  1.88895032e+10  4.39e-06 2.01e-05  9.93e-01    66s
  36   1.84463425e+10  1.88893524e+10  4.39e-06 2.00e-05  9.44e-01    67s
  37   1.84462644e+10  1.88891089e+10  4.77e-06 1.99e-05  9.08e-01    68s
  38   1.84461584e+10  1.88889422e+10  4.77e-06 1.98e-05  8.70e-01    69s
  39   1.84460547e+10  1.88887534e+10  4.39e-06 1.96e-05  8.31e-01    70s
  40   1.84459541e+10  1.88885857e+10  4.39e-06 1.95e-05  7.93e-01    71s
  41   1.84458497e+10  1.88883711e+10  4.77e-06 1.94e-05  7.55e-01    72s
  42   1.84457572e+10  1.88882240e+10  4.77e-06 1.93e-05  7.24e-01    73s
  43   1.84457032e+10  1.88881416e+10  5.15e-06 1.93e-05  7.07e-01    74s
  44   1.84456426e+10  1.88880242e+10  5.15e-06 1.92e-05  6.85e-01    75s
  45   1.84455541e+10  1.88878091e+10  5.15e-06 1.90e-05  6.53e-01    76s
  46   1.84454410e+10  1.88876850e+10  4.77e-06 1.90e-05  6.20e-01    77s
  47   1.84453626e+10  1.88875667e+10  4.77e-06 1.89e-05  5.96e-01    78s
  48   1.84453201e+10  1.88874914e+10  4.77e-06 1.88e-05  5.83e-01    79s
  49   1.84452723e+10  1.88874249e+10  5.15e-06 1.88e-05  5.69e-01    79s
  50   1.84451626e+10  1.88873121e+10  4.77e-06 1.87e-05  5.39e-01    80s
  51   1.84450661e+10  1.88871589e+10  5.72e-06 1.86e-05  5.11e-01    81s
  52   1.84449412e+10  1.88870245e+10  5.72e-06 1.85e-05  4.79e-01    81s
  53   1.84448769e+10  1.88868518e+10  5.15e-06 1.83e-05  4.59e-01    82s
  54   1.84448072e+10  1.88867966e+10  5.15e-06 1.83e-05  4.43e-01    83s
  55   1.84447447e+10  1.88867440e+10  5.34e-06 1.82e-05  4.28e-01    84s
  56   1.84447034e+10  1.88866981e+10  5.72e-06 1.82e-05  4.18e-01    84s
  57   1.84446646e+10  1.88866570e+10  5.72e-06 1.81e-05  4.09e-01    85s
  58   9.34575796e+21 -1.01150457e+21  2.15e+10 0.00e+00  2.06e+16    87s
  59   5.11106133e+21 -9.88139568e+20  2.06e+09 1.12e-08  6.85e+15    88s
  60   2.24174171e+21 -3.20371023e+20  8.88e+08 6.18e-07  2.86e+15    89s
  61   6.84451874e+20 -8.45477039e+19  2.65e+08 1.12e-07  8.49e+14    90s
  62   1.34197079e+20 -1.32197487e+19  4.81e+07 3.20e-07  1.59e+14    91s
  63   8.35389772e+18 -2.28757558e+18  2.68e+06 1.19e-06  1.05e+13    92s
  64   4.28572267e+17 -5.43339967e+17  1.21e+05 2.83e-07  7.81e+11    94s
  65   6.93637177e+16 -3.29885677e+17  1.66e+04 1.54e-07  2.85e+11    95s
  66   2.09432472e+16 -1.06815539e+17  4.56e+03 4.59e-08  8.90e+10    96s
  67   3.12643900e+15 -1.39728121e+16  5.09e+02 1.49e-08  1.18e+10    97s
  68   1.60152847e+13 -7.00603403e+13  7.85e-01 2.61e-08  5.89e+07    98s
  69   3.80252224e+10 -1.07475601e+11  2.63e-01 1.65e-08  9.95e+04    99s
  70   2.01294461e+10 -1.59369411e+09  1.63e-02 1.19e-05  1.52e+04   101s
  71   1.92215660e+10  1.53732043e+10  3.15e-03 2.35e-05  2.98e+03   102s
  72   1.88539621e+10  1.76075735e+10  9.66e-04 3.53e-05  1.22e+03   103s
  73   1.86198581e+10  1.85278257e+10  3.58e-04 4.02e-05  3.95e+02   104s
  74   1.84875138e+10  1.88267621e+10  8.92e-05 3.65e-05  1.00e+02   105s
  75   1.84620793e+10  1.88792417e+10  4.46e-05 2.81e-05  3.18e+01   106s
  76   1.84471630e+10  1.88906338e+10  1.69e-05 2.49e-05  9.95e+00   107s
  77   1.84430470e+10  1.88889089e+10  1.06e-05 2.40e-05  6.11e+00   108s
  78   1.84420039e+10  1.88874598e+10  9.06e-06 2.32e-05  4.85e+00   109s
  79   1.84410739e+10  1.88864434e+10  7.81e-06 2.27e-05  4.13e+00   110s
  80   1.84401796e+10  1.88855356e+10  6.62e-06 2.23e-05  3.53e+00   111s
  81   1.84393257e+10  1.88843733e+10  5.60e-06 2.17e-05  2.91e+00   112s
  82   1.84389521e+10  1.88834633e+10  5.13e-06 2.14e-05  2.63e+00   114s
  83   1.84384857e+10  1.88822745e+10  4.59e-06 2.10e-05  2.35e+00   115s
  84   1.84378538e+10  1.88798808e+10  3.87e-06 2.03e-05  1.93e+00   116s
  85   1.84372538e+10  1.88776773e+10  3.28e-06 1.96e-05  1.57e+00   117s
  86   1.84370159e+10  1.88749847e+10  3.43e-06 1.90e-05  1.38e+00   118s
  87   1.84367316e+10  1.88723817e+10  3.43e-06 1.85e-05  1.20e+00   119s
  88   1.84365085e+10  1.88698512e+10  3.43e-06 1.86e-05  1.08e+00   120s
  89   1.84362488e+10  1.88676249e+10  3.43e-06 1.88e-05  9.55e-01   121s
  90   1.84360580e+10  1.88668333e+10  3.81e-06 1.88e-05  8.82e-01   122s
  91   1.84359679e+10  1.88659231e+10  4.20e-06 1.89e-05  8.39e-01   122s
  92   1.84358045e+10  1.88651791e+10  3.81e-06 1.90e-05  7.78e-01   123s
  93   1.84357099e+10  1.88644638e+10  3.81e-06 1.91e-05  7.40e-01   124s
  94   1.84355933e+10  1.88640685e+10  3.81e-06 1.91e-05  7.00e-01   125s
  95   1.84355041e+10  1.88635278e+10  4.20e-06 1.92e-05  6.66e-01   127s
  96   1.84353608e+10  1.88632914e+10  4.20e-06 1.92e-05  6.22e-01   127s
  97   1.84353124e+10  1.88627717e+10  4.20e-06 1.93e-05  6.04e-01   128s
  98   1.84352546e+10  1.88624546e+10  4.39e-06 1.93e-05  5.86e-01   129s
  99   1.84352184e+10  1.88622043e+10  4.77e-06 1.94e-05  5.74e-01   131s
 100   1.84351480e+10  1.88619271e+10  4.77e-06 1.94e-05  5.53e-01   132s
 101   1.84350655e+10  1.88612838e+10  4.77e-06 1.94e-05  5.25e-01   133s
 102   1.84349710e+10  1.88608802e+10  4.77e-06 1.94e-05  4.99e-01   134s
 103   1.84348414e+10  1.88603941e+10  4.77e-06 1.94e-05  4.62e-01   136s
 104   1.84347846e+10  1.88599616e+10  5.34e-06 1.95e-05  4.47e-01   137s
 105   1.84346791e+10  1.88595824e+10  5.15e-06 1.94e-05  4.22e-01   138s
 106   1.84346321e+10  1.88592827e+10  5.34e-06 1.95e-05  4.10e-01   138s
 107   1.84345972e+10  1.88589898e+10  5.34e-06 1.95e-05  4.00e-01   139s
 108   1.84345630e+10  1.88587648e+10  5.34e-06 1.95e-05  3.92e-01   140s
 109   1.84344980e+10  1.88584386e+10  5.34e-06 1.95e-05  3.76e-01   141s
 110   1.84344707e+10  1.88582625e+10  5.34e-06 1.95e-05  3.70e-01   141s
 111   1.84344157e+10  1.88579226e+10  5.72e-06 1.95e-05  3.56e-01   142s
 112   1.84343641e+10  1.88575312e+10  5.72e-06 1.95e-05  3.44e-01   143s
 113   1.84343032e+10  1.88570330e+10  5.72e-06 1.95e-05  3.29e-01   144s
 114   1.84342542e+10  1.88563332e+10  5.15e-06 1.95e-05  3.15e-01   145s
 115   1.84341648e+10  1.88556665e+10  5.34e-06 1.95e-05  2.94e-01   146s
 116   1.84341240e+10  1.88554538e+10  6.10e-06 1.95e-05  2.86e-01   147s
 117   1.84340998e+10  1.88552716e+10  6.10e-06 1.95e-05  2.81e-01   148s
 118   1.84340647e+10  1.88550704e+10  6.29e-06 1.95e-05  2.74e-01   149s
 119   1.84340074e+10  1.88546180e+10  6.29e-06 1.95e-05  2.63e-01   150s
 120   1.84339652e+10  1.88543919e+10  6.10e-06 1.94e-05  2.54e-01   151s
 121   1.84339368e+10  1.88541838e+10  6.10e-06 1.94e-05  2.49e-01   152s
 122   1.84339055e+10  1.88540192e+10  6.29e-06 1.94e-05  2.44e-01   153s
 123   1.84338751e+10  1.88537031e+10  6.68e-06 1.94e-05  2.38e-01   154s
 124   1.84338341e+10  1.88533694e+10  6.29e-06 1.94e-05  2.30e-01   155s
 125   1.84337856e+10  1.88531883e+10  6.29e-06 1.93e-05  2.21e-01   156s
 126   1.84337455e+10  1.88530691e+10  6.10e-06 1.93e-05  2.15e-01   158s
 127   1.84337068e+10  1.88528697e+10  6.10e-06 1.93e-05  2.09e-01   159s
 128   1.84336742e+10  1.88526853e+10  7.06e-06 1.93e-05  2.04e-01   161s
 129   1.84336426e+10  1.88524960e+10  7.06e-06 1.93e-05  1.99e-01   162s
 130   1.84336149e+10  1.88522562e+10  7.06e-06 1.92e-05  1.95e-01   163s
 131   1.84335806e+10  1.88520934e+10  7.06e-06 1.92e-05  1.89e-01   164s
 132   1.84335443e+10  1.88519100e+10  7.06e-06 1.92e-05  1.84e-01   165s
 133   1.84335159e+10  1.88517392e+10  7.06e-06 1.92e-05  1.80e-01   166s
 134   1.84334869e+10  1.88515359e+10  7.06e-06 1.91e-05  1.76e-01   167s
 135   1.84334552e+10  1.88513532e+10  8.01e-06 1.91e-05  1.71e-01   169s
 136   1.84334243e+10  1.88512445e+10  8.01e-06 1.91e-05  1.67e-01   170s
 137   1.84333990e+10  1.88511045e+10  8.01e-06 1.90e-05  1.64e-01   171s
 138   1.84333742e+10  1.88509825e+10  8.01e-06 1.90e-05  1.61e-01   173s
 139   1.84333456e+10  1.88508875e+10  8.01e-06 1.90e-05  1.57e-01   175s
 140   1.84333202e+10  1.88507754e+10  8.01e-06 1.90e-05  1.54e-01   176s
 141   1.84332867e+10  1.88506540e+10  7.06e-06 1.89e-05  1.50e-01   178s
 142   1.84332653e+10  1.88503320e+10  7.06e-06 1.89e-05  1.47e-01   179s
 143   1.84332416e+10  1.88502460e+10  7.06e-06 1.89e-05  1.44e-01   180s
 144   1.84332163e+10  1.88501317e+10  7.06e-06 1.88e-05  1.41e-01   181s
 145   1.84331910e+10  1.88500343e+10  8.01e-06 1.88e-05  1.38e-01   182s
 146   1.84331687e+10  1.88499248e+10  8.01e-06 1.88e-05  1.36e-01   183s
 147   1.84331446e+10  1.88497568e+10  7.06e-06 1.88e-05  1.33e-01   184s
 148   1.84331196e+10  1.88496924e+10  7.06e-06 1.87e-05  1.30e-01   185s
 149   1.84330902e+10  1.88496276e+10  7.25e-06 1.87e-05  1.27e-01   187s
 150   1.84330739e+10  1.88494304e+10  7.63e-06 1.87e-05  1.25e-01   188s
 151   1.84330514e+10  1.88493698e+10  7.63e-06 1.86e-05  1.23e-01   188s
 152   1.84330274e+10  1.88493000e+10  7.63e-06 1.86e-05  1.21e-01   189s
 153   1.84330152e+10  1.88492590e+10  7.25e-06 1.86e-05  1.19e-01   190s
 154   1.84329956e+10  1.88491776e+10  7.63e-06 1.86e-05  1.17e-01   191s
 155   1.84329751e+10  1.88490793e+10  7.63e-06 1.86e-05  1.15e-01   192s
 156   1.84329552e+10  1.88490031e+10  7.63e-06 1.85e-05  1.13e-01   193s
 157   1.84329416e+10  1.88489734e+10  8.58e-06 1.85e-05  1.12e-01   194s
 158   1.84329253e+10  1.88489423e+10  8.58e-06 1.85e-05  1.10e-01   195s
 159   1.84329124e+10  1.88488766e+10  8.58e-06 1.85e-05  1.09e-01   195s
 160   1.84328962e+10  1.88487992e+10  7.63e-06 1.85e-05  1.08e-01   196s
 161   1.84328789e+10  1.88485591e+10  8.01e-06 1.84e-05  1.06e-01   197s
 162   1.84328553e+10  1.88484872e+10  8.20e-06 1.84e-05  1.04e-01   198s
 163   1.84328389e+10  1.88484188e+10  7.63e-06 1.84e-05  1.02e-01   199s
 164   1.84328200e+10  1.88483624e+10  8.01e-06 1.84e-05  1.01e-01   200s
 165   1.84327932e+10  1.88482913e+10  8.20e-06 1.84e-05  9.85e-02   201s
 166   1.84327829e+10  1.88482368e+10  8.01e-06 1.83e-05  9.77e-02   202s
 167   1.84327603e+10  1.88479850e+10  8.20e-06 1.83e-05  9.56e-02   203s
 168   1.84327395e+10  1.88478878e+10  8.01e-06 1.83e-05  9.77e-02   204s
 169   1.84327369e+10  1.88478805e+10  8.01e-06 1.83e-05  9.75e-02   205s
 170   1.84327312e+10  1.88477709e+10  7.63e-06 1.82e-05  9.70e-02   205s

Barrier performed 170 iterations in 205.38 seconds
Sub-optimal termination - objective 1.84331687e+10

Crossover log...

   20096 DPushes remaining with DInf 0.0000000e+00               206s
       0 DPushes remaining with DInf 4.1207142e-13               207s
Warning: Markowitz tolerance tightened to 0.5

  361124 PPushes remaining with PInf 0.0000000e+00               207s
   54087 PPushes remaining with PInf 0.0000000e+00               210s
   36348 PPushes remaining with PInf 0.0000000e+00               215s
   28256 PPushes remaining with PInf 0.0000000e+00               220s
   25982 PPushes remaining with PInf 0.0000000e+00               225s
   22596 PPushes remaining with PInf 0.0000000e+00               230s
   19204 PPushes remaining with PInf 0.0000000e+00               235s
   16471 PPushes remaining with PInf 0.0000000e+00               240s
   11087 PPushes remaining with PInf 0.0000000e+00               245s
    5271 PPushes remaining with PInf 0.0000000e+00               250s
       0 PPushes remaining with PInf 0.0000000e+00               254s

  Push phase complete: Pinf 0.0000000e+00, Dinf 3.6947699e+04    254s

Iteration    Objective       Primal Inf.    Dual Inf.      Time
  381223    1.8432926e+10   0.000000e+00   3.694770e+04    254s
  381490    1.8432857e+10   0.000000e+00   4.046324e+04    256s
  382177    1.8432555e+10   0.000000e+00   3.325948e+02    262s
  382637    1.8432481e+10   0.000000e+00   8.382843e+01    266s
  383155    1.8432369e+10   0.000000e+00   1.334065e+03    270s
  383899    1.8432033e+10   0.000000e+00   5.459007e+01    275s
  384654    1.8431722e+10   0.000000e+00   5.184668e+01    281s
  385164    1.8431620e+10   0.000000e+00   6.055850e+01    285s
  385967    1.8431587e+10   0.000000e+00   4.198109e+01    291s
  386741    1.8431558e+10   0.000000e+00   4.465136e+01    296s
  387543    1.8431527e+10   0.000000e+00   2.757654e+02    301s
  388064    1.8431502e+10   0.000000e+00   1.118044e+02    306s
  388865    1.8431474e+10   0.000000e+00   3.573985e+01    311s
  389602    1.8431441e+10   0.000000e+00   3.582988e+01    316s
  390370    1.8431402e+10   0.000000e+00   5.071182e+01    322s
  391171    1.8431362e+10   0.000000e+00   3.421887e+02    326s
  391925    1.8431321e+10   0.000000e+00   1.593245e+02    331s
  392632    1.8431275e+10   0.000000e+00   7.589988e+01    336s
  393416    1.8431229e+10   0.000000e+00   1.542708e+02    341s
  394166    1.8431186e+10   0.000000e+00   4.596445e+01    347s
  394673    1.8431159e+10   0.000000e+00   6.454411e+02    350s
  395687    1.8431100e+10   0.000000e+00   3.797549e+01    356s
  396429    1.8431053e+10   0.000000e+00   3.367068e+01    361s
  397216    1.8431019e+10   0.000000e+00   4.557216e+01    367s
  398017    1.8430976e+10   0.000000e+00   3.883952e+01    371s
  398818    1.8430931e+10   0.000000e+00   2.709292e+01    376s
  399603    1.8430892e+10   0.000000e+00   3.109720e+01    380s
  400617    1.8430832e+10   0.000000e+00   3.884238e+01    386s
  401357    1.8430795e+10   0.000000e+00   3.348513e+01    391s
  402124    1.8430761e+10   0.000000e+00   3.561057e+01    397s
  402908    1.8430721e+10   0.000000e+00   2.622723e+01    401s
  403702    1.8430683e+10   0.000000e+00   1.088681e+02    406s
  404390    1.8430655e+10   0.000000e+00   5.027477e+02    411s
  405191    1.8430617e+10   0.000000e+00   4.143231e+01    415s
  406243    1.8430572e+10   0.000000e+00   1.863430e+01    421s
  407311    1.8430524e+10   0.000000e+00   2.504118e+01    426s
  408379    1.8430478e+10   0.000000e+00   2.849804e+01    431s
  409163    1.8430451e+10   0.000000e+00   2.824690e+01    435s
  410197    1.8430382e+10   0.000000e+00   2.245044e+01    441s
  410991    1.8430333e+10   0.000000e+00   1.964196e+01    445s
  412042    1.8430293e+10   0.000000e+00   2.219175e+01    451s
  412789    1.8430264e+10   0.000000e+00   2.096426e+01    456s
  413554    1.8430232e+10   0.000000e+00   6.444947e+01    460s
  414321    1.8430198e+10   0.000000e+00   1.755429e+02    466s
  415105    1.8430150e+10   0.000000e+00   1.487306e+01    470s
  416173    1.8430092e+10   0.000000e+00   2.567361e+01    476s
  417242    1.8430042e+10   0.000000e+00   1.097130e+01    481s
  418310    1.8429997e+10   0.000000e+00   1.545655e+01    486s
  419104    1.8429965e+10   0.000000e+00   2.637563e+01    490s
  420128    1.8429923e+10   0.000000e+00   1.288176e+01    496s
  421196    1.8429887e+10   0.000000e+00   1.747626e+01    501s
  421966    1.8429843e+10   0.000000e+00   1.086560e+01    505s
  422767    1.8429807e+10   0.000000e+00   7.619132e+01    510s
  423561    1.8429783e+10   0.000000e+00   1.005658e+01    516s
  424362    1.8429757e+10   0.000000e+00   1.033105e+02    520s
  425136    1.8429728e+10   0.000000e+00   2.697530e+02    525s
  426190    1.8429699e+10   0.000000e+00   9.391765e+00    532s
  426992    1.8429679e+10   0.000000e+00   6.007720e+01    535s
  428053    1.8429645e+10   0.000000e+00   2.858722e+01    540s
  428847    1.8429613e+10   0.000000e+00   1.420965e+02    545s
  429622    1.8429580e+10   0.000000e+00   8.758424e+00    551s
  430423    1.8429555e+10   0.000000e+00   1.001362e+01    557s
  430952    1.8429537e+10   0.000000e+00   1.027230e+01    560s
  431753    1.8429521e+10   0.000000e+00   9.378379e+00    566s
  432287    1.8429504e+10   0.000000e+00   5.996536e+00    570s
  433088    1.8429481e+10   0.000000e+00   1.113858e+01    576s
  433622    1.8429467e+10   0.000000e+00   1.116521e+01    581s
  434156    1.8429453e+10   0.000000e+00   7.013407e+00    585s
  434673    1.8429440e+10   0.000000e+00   6.920429e+00    591s
  435207    1.8429427e+10   0.000000e+00   8.169327e+00    596s
  435741    1.8429416e+10   0.000000e+00   7.963806e+00    601s
  436542    1.8429398e+10   0.000000e+00   8.825733e+00    606s
  437343    1.8429379e+10   0.000000e+00   1.089614e+01    610s
